certificates/rado_a15_c12_N67.cnf
c Rad2 upper bound instance: x1 + 15*x2 - x3 = 12, interval [1,67]
p cnf 67 340
1 4 0
-1 -4 0
1 2 19 0
-1 -2 -19 0
1 3 34 0
-1 -3 -34 0
1 4 49 0
-1 -4 -49 0
1 5 64 0
-1 -5 -64 0
1 2 5 0
-1 -2 -5 0
2 20 0
-2 -20 0
2 3 35 0
-2 -3 -35 0
2 4 50 0
-2 -4 -50 0
2 5 65 0
-2 -5 -65 0
1 3 6 0
-1 -3 -6 0
2 3 21 0
-2 -3 -21 0
3 36 0
-3 -36 0
3 4 51 0
-3 -4 -51 0
3 5 66 0
-3 -5 -66 0
1 4 7 0
-1 -4 -7 0
2 4 22 0
-2 -4 -22 0
3 4 37 0
-3 -4 -37 0
4 52 0
-4 -52 0
4 5 67 0
-4 -5 -67 0
1 5 8 0
-1 -5 -8 0
2 5 23 0
-2 -5 -23 0
3 5 38 0
-3 -5 -38 0
4 5 53 0
-4 -5 -53 0
1 6 9 0
-1 -6 -9 0
2 6 24 0
-2 -6 -24 0
3 6 39 0
-3 -6 -39 0
4 6 54 0
-4 -6 -54 0
1 7 10 0
-1 -7 -10 0
2 7 25 0
-2 -7 -25 0
3 7 40 0
-3 -7 -40 0
4 7 55 0
-4 -7 -55 0
1 8 11 0
-1 -8 -11 0
2 8 26 0
-2 -8 -26 0
3 8 41 0
-3 -8 -41 0
4 8 56 0
-4 -8 -56 0
1 9 12 0
-1 -9 -12 0
2 9 27 0
-2 -9 -27 0
3 9 42 0
-3 -9 -42 0
4 9 57 0
-4 -9 -57 0
1 10 13 0
-1 -10 -13 0
2 10 28 0
-2 -10 -28 0
3 10 43 0
-3 -10 -43 0
4 10 58 0
-4 -10 -58 0
1 11 14 0
-1 -11 -14 0
2 11 29 0
-2 -11 -29 0
3 11 44 0
-3 -11 -44 0
4 11 59 0
-4 -11 -59 0
1 12 15 0
-1 -12 -15 0
2 12 30 0
-2 -12 -30 0
3 12 45 0
-3 -12 -45 0
4 12 60 0
-4 -12 -60 0
1 13 16 0
-1 -13 -16 0
2 13 31 0
-2 -13 -31 0
3 13 46 0
-3 -13 -46 0
4 13 61 0
-4 -13 -61 0
1 14 17 0
-1 -14 -17 0
2 14 32 0
-2 -14 -32 0
3 14 47 0
-3 -14 -47 0
4 14 62 0
-4 -14 -62 0
1 15 18 0
-1 -15 -18 0
2 15 33 0
-2 -15 -33 0
3 15 48 0
-3 -15 -48 0
4 15 63 0
-4 -15 -63 0
1 16 19 0
-1 -16 -19 0
2 16 34 0
-2 -16 -34 0
3 16 49 0
-3 -16 -49 0
4 16 64 0
-4 -16 -64 0
1 17 20 0
-1 -17 -20 0
2 17 35 0
-2 -17 -35 0
3 17 50 0
-3 -17 -50 0
4 17 65 0
-4 -17 -65 0
1 18 21 0
-1 -18 -21 0
2 18 36 0
-2 -18 -36 0
3 18 51 0
-3 -18 -51 0
4 18 66 0
-4 -18 -66 0
1 19 22 0
-1 -19 -22 0
2 19 37 0
-2 -19 -37 0
3 19 52 0
-3 -19 -52 0
4 19 67 0
-4 -19 -67 0
1 20 23 0
-1 -20 -23 0
2 20 38 0
-2 -20 -38 0
3 20 53 0
-3 -20 -53 0
1 21 24 0
-1 -21 -24 0
2 21 39 0
-2 -21 -39 0
3 21 54 0
-3 -21 -54 0
1 22 25 0
-1 -22 -25 0
2 22 40 0
-2 -22 -40 0
3 22 55 0
-3 -22 -55 0
1 23 26 0
-1 -23 -26 0
2 23 41 0
-2 -23 -41 0
3 23 56 0
-3 -23 -56 0
1 24 27 0
-1 -24 -27 0
2 24 42 0
-2 -24 -42 0
3 24 57 0
-3 -24 -57 0
1 25 28 0
-1 -25 -28 0
2 25 43 0
-2 -25 -43 0
3 25 58 0
-3 -25 -58 0
1 26 29 0
-1 -26 -29 0
2 26 44 0
-2 -26 -44 0
3 26 59 0
-3 -26 -59 0
1 27 30 0
-1 -27 -30 0
2 27 45 0
-2 -27 -45 0
3 27 60 0
-3 -27 -60 0
1 28 31 0
-1 -28 -31 0
2 28 46 0
-2 -28 -46 0
3 28 61 0
-3 -28 -61 0
1 29 32 0
-1 -29 -32 0
2 29 47 0
-2 -29 -47 0
3 29 62 0
-3 -29 -62 0
1 30 33 0
-1 -30 -33 0
2 30 48 0
-2 -30 -48 0
3 30 63 0
-3 -30 -63 0
1 31 34 0
-1 -31 -34 0
2 31 49 0
-2 -31 -49 0
3 31 64 0
-3 -31 -64 0
1 32 35 0
-1 -32 -35 0
2 32 50 0
-2 -32 -50 0
3 32 65 0
-3 -32 -65 0
1 33 36 0
-1 -33 -36 0
2 33 51 0
-2 -33 -51 0
3 33 66 0
-3 -33 -66 0
1 34 37 0
-1 -34 -37 0
2 34 52 0
-2 -34 -52 0
3 34 67 0
-3 -34 -67 0
1 35 38 0
-1 -35 -38 0
2 35 53 0
-2 -35 -53 0
1 36 39 0
-1 -36 -39 0
2 36 54 0
-2 -36 -54 0
1 37 40 0
-1 -37 -40 0
2 37 55 0
-2 -37 -55 0
1 38 41 0
-1 -38 -41 0
2 38 56 0
-2 -38 -56 0
1 39 42 0
-1 -39 -42 0
2 39 57 0
-2 -39 -57 0
1 40 43 0
-1 -40 -43 0
2 40 58 0
-2 -40 -58 0
1 41 44 0
-1 -41 -44 0
2 41 59 0
-2 -41 -59 0
1 42 45 0
-1 -42 -45 0
2 42 60 0
-2 -42 -60 0
1 43 46 0
-1 -43 -46 0
2 43 61 0
-2 -43 -61 0
1 44 47 0
-1 -44 -47 0
2 44 62 0
-2 -44 -62 0
1 45 48 0
-1 -45 -48 0
2 45 63 0
-2 -45 -63 0
1 46 49 0
-1 -46 -49 0
2 46 64 0
-2 -46 -64 0
1 47 50 0
-1 -47 -50 0
2 47 65 0
-2 -47 -65 0
1 48 51 0
-1 -48 -51 0
2 48 66 0
-2 -48 -66 0
1 49 52 0
-1 -49 -52 0
2 49 67 0
-2 -49 -67 0
1 50 53 0
-1 -50 -53 0
1 51 54 0
-1 -51 -54 0
1 52 55 0
-1 -52 -55 0
1 53 56 0
-1 -53 -56 0
1 54 57 0
-1 -54 -57 0
1 55 58 0
-1 -55 -58 0
1 56 59 0
-1 -56 -59 0
1 57 60 0
-1 -57 -60 0
1 58 61 0
-1 -58 -61 0
1 59 62 0
-1 -59 -62 0
1 60 63 0
-1 -60 -63 0
1 61 64 0
-1 -61 -64 0
1 62 65 0
-1 -62 -65 0
1 63 66 0
-1 -63 -66 0
1 64 67 0
-1 -64 -67 0
