certificates/rado_a15_c12_N67.drat
-64 -67 0
d -64 -1 -67 0
16 19 64 0
-4 -67 0
-67 0
64 0
4 0
-1 0
-52 0
-16 0
55 0
49 0
19 0
13 0
-7 0
-61 0
10 0
58 0
0
